Generated by VASPKIT code
 1.000000
    7.3684589808173797    0.0000000000002328    0.0000000000000000
   -3.6842294905583239    6.3812726641553734    0.0000000000000000
    0.0000000000000000    0.0000000000000000   21.7825786793874379
   C
    18
Direct
    0.0000000000000000    0.0000000000000000    0.5000000000000000     C001
    0.0000000000000000    0.3333333333333334    0.5000000000000000     C002
    0.0000000000000000    0.6666666666666669    0.5000000000000000     C003
    0.3333333333333335    0.0000000000000000    0.5000000000000000     C004
    0.3333333333333335    0.3333333333333334    0.5000000000000000     C005
    0.3333333333333334    0.6666666666666669    0.5000000000000000     C006
    0.6666666666666669    0.0000000000000000    0.5000000000000000     C007
    0.6666666666666667    0.3333333333333334    0.5000000000000000     C008
    0.6666666666666669    0.6666666666666669    0.5000000000000000     C009
    0.2222222089999993    0.1111111043333324    0.5000000000000000     C010
    0.2222222089999993    0.4444444376666657    0.5000000000000000     C011
    0.2222222089999993    0.7777777709999991    0.5000000000000000     C012
    0.5555555423333327    0.1111111043333324    0.5000000000000000     C013
    0.5555555423333327    0.4444444376666657    0.5000000000000000     C014
    0.5555555423333327    0.7777777709999991    0.5000000000000000     C015
    0.8888888756666661    0.1111111043333324    0.5000000000000000     C016
    0.8888888756666660    0.4444444376666657    0.5000000000000000     C017
    0.8888888756666660    0.7777777709999992    0.5000000000000000     C018
